
Gurobi 9.5.1 (linux64) logging started Wed Jun  8 19:14:25 2022

Set parameter LogFile to value "../results/logs/log_web-baidu-baike.e_3_250_2022_06_08_10_07.log"
Gurobi Optimizer version 9.5.1 build v9.5.1rc2 (linux64)
Thread count: 8 physical cores, 8 logical processors, using up to 8 threads
Optimize a model with 65003 rows, 4280396 columns and 1176195 nonzeros
Model fingerprint: 0xf5929290
Variable types: 0 continuous, 4280396 integer (4280396 binary)
Coefficient statistics:
  Matrix range     [1e+00, 3e+00]
  Objective range  [1e+00, 1e+00]
  Bounds range     [1e+00, 1e+00]
  RHS range        [1e+00, 2e+02]

User MIP start produced solution with objective 1.27853e+06 (1.12s)
Loaded user MIP start with objective 1.27853e+06
Processed MIP start in 1.13 seconds (0.74 work units)

Presolve removed 51060 rows and 4261417 columns
Presolve time: 2.23s
Presolved: 13943 rows, 18979 columns, 53400 nonzeros
Variable types: 0 continuous, 18979 integer (17576 binary)

Root relaxation: objective 1.279502e+06, 7769 iterations, 0.06 seconds (0.07 work units)

    Nodes    |    Current Node    |     Objective Bounds      |     Work
 Expl Unexpl |  Obj  Depth IntInf | Incumbent    BestBd   Gap | It/Node Time

     0     0 1279501.65    0 1976 1278527.00 1279501.65  0.08%     -    4s
H    0     0                    1278534.0000 1279501.65  0.08%     -    4s
     0     0 1278602.11    0  405 1278534.00 1278602.11  0.01%     -    4s
H    0     0                    1278544.0000 1278602.11  0.00%     -    4s
H    0     0                    1278545.0000 1278592.41  0.00%     -    5s
     0     0 1278557.77    0  323 1278545.00 1278557.77  0.00%     -    5s
     0     0 1278557.77    0  324 1278545.00 1278557.77  0.00%     -    5s
     0     0 1278552.92    0   28 1278545.00 1278552.92  0.00%     -    5s
     0     0 1278551.50    0   23 1278545.00 1278551.50  0.00%     -    5s
     0     0 1278551.50    0   15 1278545.00 1278551.50  0.00%     -    5s
     0     0 1278551.50    0    7 1278545.00 1278551.50  0.00%     -    5s
H    0     0                    1278551.0000 1278551.50  0.00%     -    5s

Cutting planes:
  Gomory: 77
  Cover: 7
  Implied bound: 82
  MIR: 682
  StrongCG: 25
  GUB cover: 965
  Zero half: 78
  RLT: 27
  Relax-and-lift: 4

Explored 1 nodes (10171 simplex iterations) in 6.52 seconds (4.35 work units)
Thread count was 8 (of 8 available processors)

Solution count 5: 1.27855e+06 1.27854e+06 1.27854e+06 ... 1.27853e+06

Optimal solution found (tolerance 0.00e+00)
Best objective 1.278551000000e+06, best bound 1.278551000000e+06, gap 0.0000%
